2,1,10,1,6,2,8,4,4,3,1,1,5,2,7,4,9,1,3,3;8,1,6,1,2,2,7,1,4,2,5,1,1,2,3,2,10,5,9,5;4,1,8,2,2,3,7,2,10,2,6,5,3,1,1,3,5,5,9,2;8,5,2,4,6,4,4,5,10,3,5,4,1,4,7,5,9,3,3,5;8,3,6,3,2,5,4,4,7,3,5,3,10,4,1,5,3,4,9,4;8,6,2,8,6,7,4,8,10,6,1,6,5,7,3,6,7,9,9,9;2,7,6,6,4,7,7,6,5,6,8,10,1,7,3,7,9,6,10,10;2,6,8,7,4,6,7,7,10,7,6,10,1,8,3,8,9,7,5,10;8,8,2,10,6,9,4,10,10,8,1,9,5,9,7,10,3,9,9,10;2,9,8,9,6,8,4,9,7,8,5,8,10,9,1,10,9,8,3,10;
